(set-logic QF_S)
(declare-fun var0 () String)
(assert (RegexIn var0 (RegexConcat (RegexUnion (RegexStar (Str2Reg "000")) (RegexStar (Str2Reg "11"))) (RegexConcat (RegexStar (RegexStar (Str2Reg "22"))) (RegexConcat (RegexUnion (RegexStar (Str2Reg "3")) (RegexStar (Str2Reg "444"))) (RegexConcat (RegexUnion (RegexStar (Str2Reg "555")) (RegexStar (Str2Reg "666"))) (RegexConcat (RegexUnion (RegexPlus (Str2Reg "777")) (RegexPlus (Str2Reg "88"))) (RegexConcat (RegexPlus (RegexStar (Str2Reg "99"))) (RegexConcat (RegexUnion (RegexPlus (Str2Reg "aa")) (RegexPlus (Str2Reg "bbb"))) (RegexConcat (RegexStar (RegexStar (Str2Reg "ccc"))) (RegexConcat (RegexStar (RegexUnion (Str2Reg "dd") (Str2Reg "e"))) (RegexConcat (RegexPlus (RegexUnion (Str2Reg "f") (Str2Reg "g"))) (RegexConcat (RegexPlus (RegexPlus (Str2Reg "hh"))) (RegexConcat (RegexUnion (RegexPlus (Str2Reg "ii")) (RegexPlus (Str2Reg "jj"))) (RegexConcat (RegexUnion (RegexUnion (Str2Reg "kk") (Str2Reg "l")) (RegexUnion (Str2Reg "m") (Str2Reg "nnn"))) (RegexConcat (RegexStar (RegexStar (Str2Reg "oo"))) (RegexConcat (RegexStar (RegexUnion (Str2Reg "ppp") (Str2Reg "qq"))) (RegexConcat (RegexUnion (RegexPlus (Str2Reg "rrr")) (RegexPlus (Str2Reg "sss"))) (RegexConcat (RegexPlus (RegexPlus (Str2Reg "t"))) (RegexConcat (RegexPlus (RegexUnion (Str2Reg "uuu") (Str2Reg "vvv"))) (RegexConcat (RegexStar (RegexStar (Str2Reg "ww"))) (RegexConcat (RegexUnion (RegexUnion (Str2Reg "xxx") (Str2Reg "yyy")) (RegexUnion (Str2Reg "zzz") (Str2Reg "A"))) (RegexPlus (RegexPlus (Str2Reg "BB")))))))))))))))))))))))))
(check-sat)